p cnf 19 7
e 1 0
a 2 3 0
e 4 5 0
a 6 7 8 9 10 0
e 11 12 13 0
a 14 0
e 15 0
a 16 0
e 17 18 19 0
-16 1 -9 -6 0
-9 -8 -1 4 0
-9 2 -3 4 17 0
-2 -5 -11 0
-13 -15 -3 10 12 0
10 14 -17 -11 2 0
-18 -11 -8 -4 7 0
